p cnf 19 14
-1 18 0 
-2 13 19 -18 0 
-3 5 0 
-4 19 -18 0 
-5 -6 18 0 
-7 18 0 
-8 -9 -2 13 19 -18 0 
-10 19 -18 0 
-11 -12 19 -18 0 
-13 2 19 -18 0 
-14 17 19 -18 0 
-15 19 -18 0 
-16 18 0 
-17 14 19 -18 0 
